123
234
343
464
362
467
456
567
787
547
123
234
343
464
362
467
456
567
787
547
123
234
343
464
362
467
456
567
787
547
123
234
343
464
362
467
456
567
787
547
123
234
343
464
362
467
456
567
787
547
123
234
343
464
362
467
456
567
787
547
123
234
343
464
362
467
456
567
787
547
123
234
343
464
362
467
456
567
787
547
123
234
343
464
362
467
456
567
787
547
123
234
343
464
362
467
456
567
787
547
123
234
343
464
362
467
456
567
787
547
123
234
343
464
362
467
456
567
787
547
123
234
343
464
362
467
456
567
787
547
123
234
343
464
362
467
456
567
787
547
123
234
343
464
362
467
456
567
787
547
123
234
343
464
362
467
456
567
787
547
123
234
343
464
362
467
456
567
787
547
123
234
343
464
362
467
456
567
787
547
123
234
343
464
362
467
456
567
787
547
123
234
343
464
362
467
456
567
787
547
123
234
343
464
362
467
456
567
787
547
123
234
343
464
362
467
456
567
787
547
123
234
343
464
362
467
456
567
787
547
123
234
343
464
362
467
456
567
787
547